============================[ Problem Statistics ]=============================|                                                                             ||  Number of variables:          4242                                         ||  Number of clauses:           10493                                         ||  Parse time:                   0.88 s                                       ||                                                                             |============================[ Search Statistics ]==============================| Conflicts |          ORIGINAL         |          LEARNT          | Progress ||           |    Vars  Clauses Literals |    Limit  Clauses Lit/Cl |          |===============================================================================|       100 |    1591     6698  1403919 |     2455      100     53 | 62.501 % ||       250 |    1591     6698  1403919 |     2701      250     75 | 62.495 % |===============================================================================restarts              : 4conflicts             : 472            (359 /sec)decisions             : 830            (0.00 % random) (632 /sec)propagations          : 13789          (10494 /sec)conflict literals     : 40270          (94.43 % deleted)CPU time              : 1.314 sSATISFIABLE